# Solution for model reproduction_srl_ilp
# Objective value = 3.7575508401515800e+00
Z_91_0_0 0
Z_91_0_1 0
Z_91_0_2 1
Z_91_0_3 0
Z_91_2_0 0
Z_91_2_1 0
Z_91_2_2 0
Z_91_2_3 1
Z_91_1_0 0
Z_91_1_1 1
Z_91_1_2 0
Z_91_1_3 0
Z_365_1_0 1
Z_365_1_1 0
Z_365_1_2 0
Z_365_1_3 0
Z_365_0_0 0
Z_365_0_1 0
Z_365_0_2 1
Z_365_0_3 0
Z_216_0_0 1
Z_216_0_1 0
Z_216_0_2 0
Z_216_0_3 0
Z_216_1_0 0
Z_216_1_1 0
Z_216_1_2 1
Z_216_1_3 0
